clingo version 5.7.1
Reading from crossout_puzzle.lp ...
Solving...
Answer: 1
crossedout(4,4,"c")
Optimization: 8
Answer: 2
crossedout(1,1,"a")
Optimization: 2
OPTIMUM FOUND

Models       : 2
  Optimum    : yes
Optimization : 2
Calls        : 1
Time         : 0.005s (Solving: 0.00s 1st Model: 0.00s Unsat: 0.00s)
CPU Time     : 0.000s
